c Generated map
c Size: 13 * 13, weights in range: 1 to 10, walls: True, with ratio 0.4
c dim 3 of 3
c
p sp 169 107
c graph contains 169 nodes and 107 arcs
c
a 6 19 2
a 19 6 2
a 6 7 7
a 7 6 7
a 7 20 1
a 20 7 1
a 9 22 1
a 22 9 1
a 9 10 8
a 10 9 8
a 10 23 1
a 23 10 1
a 12 25 4
a 25 12 4
a 12 13 10
a 13 12 10
a 13 26 1
a 26 13 1
a 19 32 3
a 32 19 3
a 19 20 1
a 20 19 1
a 22 35 5
a 35 22 5
a 22 23 4
a 23 22 4
a 23 24 7
a 24 23 7
a 24 25 5
a 25 24 5
a 25 26 6
a 26 25 6
a 26 39 5
a 39 26 5
a 27 40 4
a 40 27 4
a 29 30 10
a 30 29 10
a 30 31 8
a 31 30 8
a 31 32 9
a 32 31 9
a 35 48 4
a 48 35 4
a 40 53 4
a 53 40 4
a 40 41 6
a 41 40 6
a 41 54 3
a 54 41 3
a 46 59 10
a 59 46 10
a 50 63 7
a 63 50 7
a 53 66 5
a 66 53 5
a 53 54 6
a 54 53 6
a 54 67 3
a 67 54 3
a 54 55 9
a 55 54 9
a 55 68 10
a 68 55 10
a 55 56 5
a 56 55 5
a 56 57 2
a 57 56 2
a 57 70 1
a 70 57 1
a 59 60 7
a 60 59 7
a 62 75 7
a 75 62 7
a 62 63 8
a 63 62 8
a 65 78 3
a 78 65 3
a 66 79 2
a 79 66 2
a 66 67 1
a 67 66 1
a 67 68 2
a 68 67 2
a 68 81 1
a 81 68 1
a 70 83 3
a 83 70 3
a 70 71 4
a 71 70 4
a 71 84 1
a 84 71 1
a 77 90 4
a 90 77 4
a 77 78 1
a 78 77 1
a 78 91 8
a 91 78 8
a 79 92 6
a 92 79 6
a 81 82 10
a 82 81 10
a 82 83 5
a 83 82 5
a 83 84 1
a 84 83 1
a 89 102 5
a 102 89 5
a 89 90 3
a 90 89 3
a 90 91 5
a 91 90 5
a 92 93 9
a 93 92 9
a 98 111 3
a 111 98 3
a 98 99 10
a 99 98 10
a 102 115 3
a 115 102 3
a 109 122 5
a 122 109 5
a 111 124 1
a 124 111 1
a 115 128 7
a 128 115 7
a 117 130 10
a 130 117 10
a 118 131 9
a 131 118 9
a 118 119 9
a 119 118 9
a 119 132 5
a 132 119 5
a 119 120 2
a 120 119 2
a 120 121 8
a 121 120 8
a 121 134 1
a 134 121 1
a 121 122 8
a 122 121 8
a 122 123 5
a 123 122 5
a 123 124 4
a 124 123 4
a 124 137 5
a 137 124 5
a 124 125 7
a 125 124 7
a 125 138 2
a 138 125 2
a 125 126 7
a 126 125 7
a 126 139 9
a 139 126 9
a 126 127 1
a 127 126 1
a 127 128 7
a 128 127 7
a 128 129 7
a 129 128 7
a 129 142 2
a 142 129 2
a 129 130 7
a 130 129 7
a 130 143 4
a 143 130 4
a 131 132 5
a 132 131 5
a 132 145 8
a 145 132 8
a 137 150 8
a 150 137 8
a 137 138 6
a 138 137 6
a 138 151 3
a 151 138 3
a 138 139 5
a 139 138 5
a 142 155 7
a 155 142 7
a 142 143 10
a 143 142 10
a 143 156 1
a 156 143 1
a 145 158 6
a 158 145 6
a 145 146 6
a 146 145 6
a 148 161 1
a 161 148 1
a 150 163 2
a 163 150 2
a 150 151 2
a 151 150 2
a 155 168 10
a 168 155 10
a 155 156 3
a 156 155 3
a 156 169 10
a 169 156 10
a 160 161 2
a 161 160 2
a 161 162 8
a 162 161 8
a 162 163 7
a 163 162 7
a 166 167 3
a 167 166 3
a 167 168 10
a 168 167 10
a 168 169 8
a 169 168 8
